NAME: ACTUAL_TOURS/amz0324
TYPE: TOUR
COMMENT: RouteID_2318a3c3-4068-4a33-9db2-149b801375ab
DIMENSION: 179
TOUR_SECTION
75
69
119
22
80
129
142
133
144
130
47
12
122
154
8
23
114
159
19
30
167
175
78
1
109
148
168
63
34
176
104
18
172
3
152
10
53
43
107
161
6
56
141
137
177
48
39
157
60
55
158
162
5
126
132
86
82
105
90
173
166
111
50
79
27
116
136
28
118
117
127
65
151
26
169
174
96
44
124
61
45
88
115
29
85
84
165
51
103
164
178
125
41
59
102
83
62
37
73
36
14
38
93
106
138
121
94
46
140
35
11
42
163
145
17
95
66
101
15
77
72
135
150
71
54
120
134
160
2
32
100
155
123
112
147
110
49
113
170
9
153
20
40
74
13
143
7
108
21
128
91
24
171
131
81
76
97
139
64
146
4
89
67
16
87
70
68
92
179
156
58
31
99
149
57
52
33
25
98
-1
EOF
